proyfinal/src/viki/013/experimentInOfficeAgust.take6.output/b1601bd0-d906-4726-bfea-7aad6b0e5e0f.als.dat
{'cnf.clauses': '118081',
 'cnf.totvars': '69608',
 'conflict literals': '4',
 'conflicts': '4',
 'decisions': '637',
 'memused.mb': '17.54',
 'outcome': 'UNSAT',
 'propagations': '20328',
 'restarts': '1',
 'solver.msecs': 29,
 'task.msecs': 74}
