proyfinal/src/viki/013/experimentInOfficeAgust.take6.output/b1601bd0-d906-4726-bfea-7aad6b0e5e0f.als.out
Reading from standard input... Use '--help' for help.
============================[ Problem Statistics ]=============================
|                                                                             |
|  Number of variables:         69608                                         |
|  Number of clauses:          118081                                         |
|  Parse time:                   0.02 s                                       |
|                                                                             |
============================[ Search Statistics ]==============================
| Conflicts |          ORIGINAL         |          LEARNT          | Progress |
|           |    Vars  Clauses Literals |    Limit  Clauses Lit/Cl |          |
===============================================================================
===============================================================================
restarts              : 1
conflicts             : 4              (134 /sec)
decisions             : 637            (0.00 % random) (21390 /sec)
propagations          : 20328          (682606 /sec)
conflict literals     : 4              (0.00 % deleted)
Memory used           : 17.54 MB
CPU time              : 0.02978 s

UNSATISFIABLE
